NAME : s-21_t.-498.tour
COMMENT : Length = -498
COMMENT : Found by LKH [Keld Helsgaun] Sun Apr 13 17:05:01 2025
TYPE : TOUR
DIMENSION : 21
TOUR_SECTION
1
3
15
8
21
2
9
13
11
7
17
10
20
18
12
16
6
5
14
4
19
-1
EOF
